
  32    4
  10   10   10   10

   0   0   0   0   0   1 2 
   8  10  10  10  10   1 3 
   6  10  10  10  10   1 4 
  10  10  10  10  10   1 5 
   5  10  10  10  10   2 7 6 
   5  10  10  10  10   1 8 
   3  10  10  10  10   1 8 
   7  10  10  10  10   1 9 
   9  10  10  10  10   1 10 
   5  10  10  10  10   1 11 
   8  10  10  10  10   2 13 12 
   8  10  10  10  10   1 14 
   3  10  10  10  10   1 14 
   1  10  10  10  10   1 15 
   9  10  10  10  10   2 17 16 
   7  10  10  10  10   1 18 
   9  10  10  10  10   1 18 
   7  10  10  10  10   1 19 
  10  10  10  10  10   3 24 21 20 
   4  10  10  10  10   1 22 
   9  10  10  10  10   1 22 
   1  10  10  10  10   1 23 
  10  10  10  10  10   1 25 
   2  10  10  10  10   1 25 
   8  10  10  10  10   1 26 
   9  10  10  10  10   1 27 
   8  10  10  10  10   1 28 
   5  10  10  10  10   1 29 
   8  10  10  10  10   2 31 30 
   2  10  10  10  10   1 32
   8  10  10  10  10   1 32
   0   0   0   0   0   0 
